16279.75,42.78,48.6
15493.24,44.95,51.06
13993.6,49.77,56.53
14746.7,47.22,53.65
14176.32,49.12,55.81
14490.99,48.06,54.59
14760.94,47.18,53.6
17412.64,39.99,45.43
14869.0,46.84,53.21
14376.49,48.44,55.03
13930.3,49.99,56.79
12786.96,54.46,61.87
13866.34,50.22,57.05
14269.65,48.8,55.44
16563.58,42.04,47.76
15088.88,46.15,52.43
14159.39,49.18,55.87
17190.13,40.51,46.02
15147.18,45.98,52.23
14436.46,48.24,54.8
